c description: Random 3-CNF over 15 variables and 95 clauses
c generator: CNFgen (0.9.0)
c copyright: (C) 2012-2020 Massimo Lauria <massimo.lauria@uniroma1.it>
c url: https://massimolauria.net/cnfgen
c
p cnf 15 95
-6 7 -13 0
2 -4 10 0
4 8 -14 0
3 -7 -8 0
5 -12 -15 0
2 -8 -14 0
2 -5 7 0
-3 9 -13 0
-3 -10 -15 0
-3 5 14 0
-5 11 -12 0
7 -14 15 0
8 -11 -13 0
-2 -10 14 0
-9 10 -15 0
6 -10 14 0
-2 -4 12 0
2 -5 11 0
2 5 10 0
-2 3 8 0
-4 -6 -14 0
-5 12 -13 0
6 -12 -14 0
-2 11 15 0
1 -3 14 0
-5 -6 -13 0
-3 -12 15 0
5 8 -14 0
-4 -10 13 0
5 6 13 0
-1 -8 -9 0
8 12 -14 0
-6 10 -12 0
-4 -5 -9 0
-3 8 -13 0
2 8 -11 0
4 6 15 0
1 2 15 0
10 -12 -15 0
9 10 13 0
-2 10 13 0
-1 11 -12 0
5 12 -15 0
-2 -10 -11 0
2 -4 11 0
-2 -8 -10 0
-4 10 15 0
-2 5 8 0
10 -12 -14 0
2 -4 5 0
2 -8 11 0
1 4 -9 0
9 -10 -14 0
2 8 10 0
-2 -4 -15 0
-2 4 -5 0
-7 -8 -9 0
-3 -9 11 0
3 4 15 0
-5 7 -14 0
2 -7 8 0
3 -7 12 0
-2 -9 15 0
2 -10 -14 0
-1 2 14 0
1 11 14 0
10 13 -14 0
-5 12 -15 0
1 -6 -10 0
-2 5 7 0
4 11 -15 0
2 8 9 0
-2 -3 12 0
-3 -5 13 0
-3 -4 12 0
-2 -3 6 0
10 -12 -13 0
2 6 13 0
-2 5 -13 0
-3 -10 -12 0
-4 6 -9 0
4 6 -7 0
-4 6 -13 0
-2 12 -14 0
-1 10 11 0
-2 8 -10 0
-7 13 -14 0
3 6 -13 0
2 3 -5 0
-4 9 12 0
3 9 14 0
1 6 -13 0
2 -5 10 0
2 -4 -7 0
-8 -14 15 0